100
1000
200
200
199
198
198
198
197
196
196
195
195
194
194
194
193
192
191
191
190
190
190
190
189
189
188
188
188
187
187
185
184
183
182
182
181
181
181
180
180
180
179
179
179
179
178
178
178
178
178
177
177
176
176
174
173
172
172
171
171
170
170
169
169
169
168
167
167
167
166
164
164
163
163
161
160
160
160
159
159
159
159
159
158
157
157
155
155
154
154
153
153
153
153
152
151
151
151
151
150
150
